(set-info :source |printed by MathSAT|)
(declare-fun param_e6 () Bool)
(declare-fun call_illinois.ite15 () Int)
(declare-fun call_illinois.ite31 () Int)
(declare-fun call_illinois.ite22 () Int)
(declare-fun call_illinois.g5 () Bool)
(declare-fun call_illinois.ite17 () Int)
(declare-fun call_illinois.ite42 () Int)
(declare-fun call_illinois.ite28 () Int)
(declare-fun call_illinois.ite34 () Int)
(declare-fun env () Bool)
(declare-fun shared () Int)
(declare-fun call_illinois.ite8 () Int)
(declare-fun call_illinois.ite27 () Int)
(declare-fun call_illinois.ite25 () Int)
(declare-fun call_illinois.ite32 () Int)
(declare-fun param_e9 () Bool)
(declare-fun call_Sofar.flby () Bool)
(declare-fun call_illinois.ite29 () Int)
(declare-fun call_illinois.ite44 () Int)
(declare-fun exclusive () Int)
(declare-fun param_e2 () Bool)
(declare-fun call_illinois.g6 () Bool)
(declare-fun call_illinois.ite20 () Int)
(declare-fun call_illinois.ite26 () Int)
(declare-fun call_illinois.ite10 () Int)
(declare-fun call_illinois.ite6 () Int)
(declare-fun call_illinois.ite2 () Int)
(declare-fun call_illinois.ite7 () Int)
(declare-fun call_Sofar.Sofar () Bool)
(declare-fun param_e8 () Bool)
(declare-fun call_illinois.ite3 () Int)
(declare-fun param_init_invalid () Int)
(declare-fun call_illinois.dirty () Int)
(declare-fun param_e3 () Bool)
(declare-fun call_illinois.ite11 () Int)
(declare-fun call_illinois.ite35 () Int)
(declare-fun call_illinois.ite38 () Int)
(declare-fun call_illinois.ite24 () Int)
(declare-fun call_illinois.ite13 () Int)
(declare-fun call_illinois.ite47 () Int)
(declare-fun param_e4 () Bool)
(declare-fun call_excludes9.excludes () Bool)
(declare-fun call_illinois.ite41 () Int)
(declare-fun call_illinois.ite19 () Int)
(declare-fun call_illinois.ite37 () Int)
(declare-fun call_illinois.ite21 () Int)
(declare-fun call_illinois.ite39 () Int)
(declare-fun call_illinois.ite18 () Int)
(declare-fun call_illinois.ite9 () Int)
(declare-fun call_illinois.ite46 () Int)
(declare-fun _OK_ () Bool)
(declare-fun call_illinois.ite12 () Int)
(declare-fun call_illinois.ite16 () Int)
(declare-fun call_illinois.ite33 () Int)
(declare-fun call_illinois.exclusive () Int)
(declare-fun param_e7 () Bool)
(declare-fun call_illinois.flby () Int)
(declare-fun invalid () Int)
(declare-fun call_illinois.flby3 () Int)
(declare-fun call_illinois.ite45 () Int)
(declare-fun call_illinois.invalid () Int)
(declare-fun call_illinois.ite43 () Int)
(declare-fun call_illinois.ite23 () Int)
(declare-fun param_e5 () Bool)
(declare-fun param_e1 () Bool)
(declare-fun call_illinois.flby4 () Int)
(declare-fun call_illinois.shared () Int)
(declare-fun call_illinois.ite4 () Int)
(declare-fun call_illinois.flby2 () Int)
(declare-fun call_illinois.ite5 () Int)
(declare-fun call_illinois.ite () Int)
(declare-fun call_illinois.ite36 () Int)
(declare-fun call_illinois.ite30 () Int)
(declare-fun dirty () Int)
(declare-fun call_illinois.ite40 () Int)
(declare-fun call_illinois.ite14 () Int)
(define-fun .def_1242 () Bool (= call_Sofar.flby call_Sofar.Sofar))
(define-fun .def_1037 () Bool (not param_e2))
(define-fun .def_1018 () Bool (not param_e1))
(define-fun .def_1179 () Bool (and .def_1018 .def_1037))
(define-fun .def_1065 () Bool (not param_e3))
(define-fun .def_1180 () Bool (and .def_1065 .def_1179))
(define-fun .def_1091 () Bool (not param_e4))
(define-fun .def_1181 () Bool (and .def_1091 .def_1180))
(define-fun .def_1109 () Bool (not param_e5))
(define-fun .def_1182 () Bool (and .def_1109 .def_1181))
(define-fun .def_1134 () Bool (not param_e6))
(define-fun .def_1183 () Bool (and .def_1134 .def_1182))
(define-fun .def_928 () Bool (not param_e7))
(define-fun .def_1184 () Bool (and .def_928 .def_1183))
(define-fun .def_935 () Bool (not param_e8))
(define-fun .def_1185 () Bool (and .def_935 .def_1184))
(define-fun .def_917 () Bool (not param_e9))
(define-fun .def_1230 () Bool (and .def_917 .def_1185))
(define-fun .def_1222 () Bool (and param_e1 .def_1037))
(define-fun .def_1223 () Bool (and .def_1065 .def_1222))
(define-fun .def_1224 () Bool (and .def_1091 .def_1223))
(define-fun .def_1225 () Bool (and .def_1109 .def_1224))
(define-fun .def_1226 () Bool (and .def_1134 .def_1225))
(define-fun .def_1227 () Bool (and .def_928 .def_1226))
(define-fun .def_1228 () Bool (and .def_935 .def_1227))
(define-fun .def_1229 () Bool (and .def_917 .def_1228))
(define-fun .def_1231 () Bool (or .def_1229 .def_1230))
(define-fun .def_1214 () Bool (and .def_1018 param_e2))
(define-fun .def_1215 () Bool (and .def_1065 .def_1214))
(define-fun .def_1216 () Bool (and .def_1091 .def_1215))
(define-fun .def_1217 () Bool (and .def_1109 .def_1216))
(define-fun .def_1218 () Bool (and .def_1134 .def_1217))
(define-fun .def_1219 () Bool (and .def_928 .def_1218))
(define-fun .def_1220 () Bool (and .def_935 .def_1219))
(define-fun .def_1221 () Bool (and .def_917 .def_1220))
(define-fun .def_1232 () Bool (or .def_1221 .def_1231))
(define-fun .def_1207 () Bool (and param_e3 .def_1179))
(define-fun .def_1208 () Bool (and .def_1091 .def_1207))
(define-fun .def_1209 () Bool (and .def_1109 .def_1208))
(define-fun .def_1210 () Bool (and .def_1134 .def_1209))
(define-fun .def_1211 () Bool (and .def_928 .def_1210))
(define-fun .def_1212 () Bool (and .def_935 .def_1211))
(define-fun .def_1213 () Bool (and .def_917 .def_1212))
(define-fun .def_1233 () Bool (or .def_1213 .def_1232))
(define-fun .def_1201 () Bool (and param_e4 .def_1180))
(define-fun .def_1202 () Bool (and .def_1109 .def_1201))
(define-fun .def_1203 () Bool (and .def_1134 .def_1202))
(define-fun .def_1204 () Bool (and .def_928 .def_1203))
(define-fun .def_1205 () Bool (and .def_935 .def_1204))
(define-fun .def_1206 () Bool (and .def_917 .def_1205))
(define-fun .def_1234 () Bool (or .def_1206 .def_1233))
(define-fun .def_1196 () Bool (and param_e5 .def_1181))
(define-fun .def_1197 () Bool (and .def_1134 .def_1196))
(define-fun .def_1198 () Bool (and .def_928 .def_1197))
(define-fun .def_1199 () Bool (and .def_935 .def_1198))
(define-fun .def_1200 () Bool (and .def_917 .def_1199))
(define-fun .def_1235 () Bool (or .def_1200 .def_1234))
(define-fun .def_1192 () Bool (and param_e6 .def_1182))
(define-fun .def_1193 () Bool (and .def_928 .def_1192))
(define-fun .def_1194 () Bool (and .def_935 .def_1193))
(define-fun .def_1195 () Bool (and .def_917 .def_1194))
(define-fun .def_1236 () Bool (or .def_1195 .def_1235))
(define-fun .def_1189 () Bool (and param_e7 .def_1183))
(define-fun .def_1190 () Bool (and .def_935 .def_1189))
(define-fun .def_1191 () Bool (and .def_917 .def_1190))
(define-fun .def_1237 () Bool (or .def_1191 .def_1236))
(define-fun .def_1187 () Bool (and param_e8 .def_1184))
(define-fun .def_1188 () Bool (and .def_917 .def_1187))
(define-fun .def_1238 () Bool (or .def_1188 .def_1237))
(define-fun .def_1186 () Bool (and param_e9 .def_1185))
(define-fun .def_1239 () Bool (or .def_1186 .def_1238))
(define-fun .def_1240 () Bool (= call_excludes9.excludes .def_1239))
(define-fun .def_1177 () Bool (= call_illinois.flby4 call_illinois.shared))
(define-fun .def_1175 () Bool (= call_illinois.flby3 call_illinois.exclusive))
(define-fun .def_1173 () Bool (= call_illinois.flby2 call_illinois.dirty))
(define-fun .def_1171 () Bool (= call_illinois.flby call_illinois.invalid))
(define-fun .def_1167 () Bool (= call_illinois.ite11 call_illinois.ite8))
(define-fun .def_1168 () Bool (or .def_935 .def_1167))
(define-fun .def_1164 () Bool (= call_illinois.ite10 call_illinois.ite11))
(define-fun .def_1165 () Bool (or param_e8 .def_1164))
(define-fun .def_1169 () Bool (and .def_1165 .def_1168))
(define-fun .def_1160 () Bool (= call_illinois.ite12 call_illinois.ite7))
(define-fun .def_1161 () Bool (or .def_928 .def_1160))
(define-fun .def_1157 () Bool (= call_illinois.ite12 call_illinois.ite11))
(define-fun .def_1158 () Bool (or param_e7 .def_1157))
(define-fun .def_1162 () Bool (and .def_1158 .def_1161))
(define-fun .def_1152 () Bool (= call_illinois.ite43 call_illinois.ite44))
(define-fun .def_1153 () Bool (or param_e6 .def_1152))
(define-fun .def_1149 () Bool (= call_illinois.ite41 call_illinois.ite44))
(define-fun .def_1150 () Bool (or .def_1134 .def_1149))
(define-fun .def_1146 () Bool (= call_illinois.ite33 call_illinois.ite34))
(define-fun .def_1147 () Bool (or param_e6 .def_1146))
(define-fun .def_1143 () Bool (= call_illinois.ite31 call_illinois.ite34))
(define-fun .def_1144 () Bool (or .def_1134 .def_1143))
(define-fun .def_1140 () Bool (= call_illinois.ite23 call_illinois.ite24))
(define-fun .def_1141 () Bool (or param_e6 .def_1140))
(define-fun .def_1137 () Bool (= call_illinois.ite21 call_illinois.ite24))
(define-fun .def_1138 () Bool (or .def_1134 .def_1137))
(define-fun .def_1133 () Bool (= call_illinois.ite13 call_illinois.ite6))
(define-fun .def_1135 () Bool (or .def_1133 .def_1134))
(define-fun .def_1129 () Bool (= call_illinois.ite13 call_illinois.ite12))
(define-fun .def_1131 () Bool (or .def_1129 param_e6))
(define-fun .def_1136 () Bool (and .def_1131 .def_1135))
(define-fun .def_1139 () Bool (and .def_1136 .def_1138))
(define-fun .def_1142 () Bool (and .def_1139 .def_1141))
(define-fun .def_1145 () Bool (and .def_1142 .def_1144))
(define-fun .def_1148 () Bool (and .def_1145 .def_1147))
(define-fun .def_1151 () Bool (and .def_1148 .def_1150))
(define-fun .def_1154 () Bool (and .def_1151 .def_1153))
(define-fun .def_1124 () Bool (= call_illinois.ite45 call_illinois.ite44))
(define-fun .def_1125 () Bool (or param_e5 .def_1124))
(define-fun .def_1120 () Bool (= call_illinois.ite40 call_illinois.ite45))
(define-fun .def_1121 () Bool (or .def_1109 .def_1120))
(define-fun .def_1117 () Bool (= call_illinois.ite25 call_illinois.ite24))
(define-fun .def_1118 () Bool (or param_e5 .def_1117))
(define-fun .def_1113 () Bool (= call_illinois.ite25 call_illinois.ite20))
(define-fun .def_1114 () Bool (or .def_1109 .def_1113))
(define-fun .def_1108 () Bool (= call_illinois.ite14 call_illinois.ite5))
(define-fun .def_1110 () Bool (or .def_1108 .def_1109))
(define-fun .def_1104 () Bool (= call_illinois.ite14 call_illinois.ite13))
(define-fun .def_1106 () Bool (or .def_1104 param_e5))
(define-fun .def_1111 () Bool (and .def_1106 .def_1110))
(define-fun .def_1115 () Bool (and .def_1111 .def_1114))
(define-fun .def_1119 () Bool (and .def_1115 .def_1118))
(define-fun .def_1122 () Bool (and .def_1119 .def_1121))
(define-fun .def_1126 () Bool (and .def_1122 .def_1125))
(define-fun .def_1099 () Bool (= call_illinois.ite35 call_illinois.ite34))
(define-fun .def_1100 () Bool (or param_e4 .def_1099))
(define-fun .def_1095 () Bool (= call_illinois.ite35 call_illinois.ite30))
(define-fun .def_1096 () Bool (or .def_1091 .def_1095))
(define-fun .def_1090 () Bool (= call_illinois.ite26 call_illinois.ite19))
(define-fun .def_1092 () Bool (or .def_1090 .def_1091))
(define-fun .def_1086 () Bool (= call_illinois.ite26 call_illinois.ite25))
(define-fun .def_1088 () Bool (or .def_1086 param_e4))
(define-fun .def_1093 () Bool (and .def_1088 .def_1092))
(define-fun .def_1097 () Bool (and .def_1093 .def_1096))
(define-fun .def_1101 () Bool (and .def_1097 .def_1100))
(define-fun .def_1081 () Bool (= call_illinois.ite46 call_illinois.ite45))
(define-fun .def_1082 () Bool (or param_e3 .def_1081))
(define-fun .def_1077 () Bool (= call_illinois.ite46 call_illinois.ite39))
(define-fun .def_1078 () Bool (or .def_1065 .def_1077))
(define-fun .def_1073 () Bool (= call_illinois.ite36 call_illinois.ite35))
(define-fun .def_1074 () Bool (or param_e3 .def_1073))
(define-fun .def_1069 () Bool (= call_illinois.ite36 call_illinois.ite29))
(define-fun .def_1070 () Bool (or .def_1065 .def_1069))
(define-fun .def_1064 () Bool (= call_illinois.ite15 call_illinois.ite4))
(define-fun .def_1066 () Bool (or .def_1064 .def_1065))
(define-fun .def_1060 () Bool (= call_illinois.ite15 call_illinois.ite14))
(define-fun .def_1062 () Bool (or .def_1060 param_e3))
(define-fun .def_1067 () Bool (and .def_1062 .def_1066))
(define-fun .def_1071 () Bool (and .def_1067 .def_1070))
(define-fun .def_1075 () Bool (and .def_1071 .def_1074))
(define-fun .def_1079 () Bool (and .def_1075 .def_1078))
(define-fun .def_1083 () Bool (and .def_1079 .def_1082))
(define-fun .def_1055 () Bool (= call_illinois.ite47 call_illinois.ite46))
(define-fun .def_1056 () Bool (or param_e2 .def_1055))
(define-fun .def_1051 () Bool (= call_illinois.ite38 call_illinois.ite47))
(define-fun .def_1052 () Bool (or .def_1037 .def_1051))
(define-fun .def_1046 () Bool (= call_illinois.ite27 call_illinois.ite26))
(define-fun .def_1047 () Bool (or param_e2 .def_1046))
(define-fun .def_1042 () Bool (= call_illinois.ite18 call_illinois.ite27))
(define-fun .def_1043 () Bool (or .def_1037 .def_1042))
(define-fun .def_1036 () Bool (= call_illinois.ite16 call_illinois.ite3))
(define-fun .def_1038 () Bool (or .def_1036 .def_1037))
(define-fun .def_1032 () Bool (= call_illinois.ite16 call_illinois.ite15))
(define-fun .def_1034 () Bool (or .def_1032 param_e2))
(define-fun .def_1039 () Bool (and .def_1034 .def_1038))
(define-fun .def_1044 () Bool (and .def_1039 .def_1043))
(define-fun .def_1048 () Bool (and .def_1044 .def_1047))
(define-fun .def_1053 () Bool (and .def_1048 .def_1052))
(define-fun .def_1057 () Bool (and .def_1053 .def_1056))
(define-fun .def_1027 () Bool (= call_illinois.ite37 call_illinois.ite36))
(define-fun .def_1028 () Bool (or param_e1 .def_1027))
(define-fun .def_1023 () Bool (= call_illinois.ite28 call_illinois.ite37))
(define-fun .def_1024 () Bool (or .def_1018 .def_1023))
(define-fun .def_1017 () Bool (= call_illinois.ite17 call_illinois.ite2))
(define-fun .def_1019 () Bool (or .def_1017 .def_1018))
(define-fun .def_1013 () Bool (= call_illinois.ite17 call_illinois.ite16))
(define-fun .def_1015 () Bool (or .def_1013 param_e1))
(define-fun .def_1020 () Bool (and .def_1015 .def_1019))
(define-fun .def_1025 () Bool (and .def_1020 .def_1024))
(define-fun .def_1029 () Bool (and .def_1025 .def_1028))
(define-fun .def_1007 () Bool (= call_illinois.ite param_init_invalid))
(define-fun .def_972 () Bool (<= param_init_invalid 0))
(define-fun .def_1008 () Bool (or .def_972 .def_1007))
(define-fun .def_1004 () Int (+ call_illinois.ite param_init_invalid))
(define-fun .def_1005 () Bool (= .def_1004 1))
(define-fun .def_973 () Bool (not .def_972))
(define-fun .def_1006 () Bool (or .def_973 .def_1005))
(define-fun .def_1009 () Bool (and .def_1006 .def_1008))
(define-fun .def_1002 () Bool (= env call_Sofar.Sofar))
(define-fun .def_999 () Bool (= shared call_illinois.shared))
(define-fun .def_995 () Bool (= exclusive call_illinois.exclusive))
(define-fun .def_992 () Bool (= dirty call_illinois.dirty))
(define-fun .def_988 () Bool (= invalid call_illinois.invalid))
(define-fun .def_983 () Bool (<= 0 exclusive))
(define-fun .def_981 () Bool (not env))
(define-fun .def_984 () Bool (or .def_981 .def_983))
(define-fun .def_985 () Bool (= _OK_ .def_984))
(define-fun .def_989 () Bool (and .def_985 .def_988))
(define-fun .def_993 () Bool (and .def_989 .def_992))
(define-fun .def_996 () Bool (and .def_993 .def_995))
(define-fun .def_1000 () Bool (and .def_996 .def_999))
(define-fun .def_1003 () Bool (and .def_1000 .def_1002))
(define-fun .def_1010 () Bool (and .def_1003 .def_1009))
(define-fun .def_1030 () Bool (and .def_1010 .def_1029))
(define-fun .def_1058 () Bool (and .def_1030 .def_1057))
(define-fun .def_1084 () Bool (and .def_1058 .def_1083))
(define-fun .def_1102 () Bool (and .def_1084 .def_1101))
(define-fun .def_1127 () Bool (and .def_1102 .def_1126))
(define-fun .def_1155 () Bool (and .def_1127 .def_1154))
(define-fun .def_1163 () Bool (and .def_1155 .def_1162))
(define-fun .def_1170 () Bool (and .def_1163 .def_1169))
(define-fun .def_1172 () Bool (and .def_1170 .def_1171))
(define-fun .def_1174 () Bool (and .def_1172 .def_1173))
(define-fun .def_1176 () Bool (and .def_1174 .def_1175))
(define-fun .def_1178 () Bool (and .def_1176 .def_1177))
(define-fun .def_1241 () Bool (and .def_1178 .def_1240))
(define-fun .def_1243 () Bool (and .def_1241 .def_1242))
(define-fun .def_975 () Bool (and .def_973 call_excludes9.excludes))
(define-fun .def_977 () Bool (= .def_975 call_Sofar.flby))
(define-fun .def_969 () Bool (= call_illinois.flby4 0))
(define-fun .def_966 () Bool (= call_illinois.flby3 0))
(define-fun .def_963 () Bool (= call_illinois.flby2 0))
(define-fun .def_960 () Bool (= call_illinois.ite call_illinois.flby))
(define-fun .def_954 () Bool (= call_illinois.ite41 0))
(define-fun .def_947 () Bool (not call_illinois.g6))
(define-fun .def_955 () Bool (or .def_947 .def_954))
(define-fun .def_950 () Bool (= call_illinois.ite21 1))
(define-fun .def_951 () Bool (or .def_947 .def_950))
(define-fun .def_945 () Bool (= call_illinois.ite31 0))
(define-fun .def_948 () Bool (or .def_945 .def_947))
(define-fun .def_952 () Bool (and .def_948 .def_951))
(define-fun .def_956 () Bool (and .def_952 .def_955))
(define-fun .def_941 () Bool (= call_illinois.ite40 0))
(define-fun .def_939 () Bool (not call_illinois.g5))
(define-fun .def_942 () Bool (or .def_939 .def_941))
(define-fun .def_933 () Bool (= call_illinois.ite42 call_illinois.ite43))
(define-fun .def_936 () Bool (or .def_933 .def_935))
(define-fun .def_926 () Bool (= call_illinois.ite22 call_illinois.ite23))
(define-fun .def_929 () Bool (or .def_926 .def_928))
(define-fun .def_921 () Bool (= call_illinois.ite9 call_illinois.ite10))
(define-fun .def_922 () Bool (or .def_917 .def_921))
(define-fun .def_915 () Bool (= call_illinois.ite32 call_illinois.ite33))
(define-fun .def_918 () Bool (or .def_915 .def_917))
(define-fun .def_923 () Bool (and .def_918 .def_922))
(define-fun .def_930 () Bool (and .def_923 .def_929))
(define-fun .def_937 () Bool (and .def_930 .def_936))
(define-fun .def_943 () Bool (and .def_937 .def_942))
(define-fun .def_957 () Bool (and .def_943 .def_956))
(define-fun .def_961 () Bool (and .def_957 .def_960))
(define-fun .def_964 () Bool (and .def_961 .def_963))
(define-fun .def_967 () Bool (and .def_964 .def_966))
(define-fun .def_970 () Bool (and .def_967 .def_969))
(define-fun .def_978 () Bool (and .def_970 .def_977))
(define-fun .def_1244 () Bool (and .def_978 .def_1243))
(assert .def_1244)
